
Gurobi 8.1.1 (linux64, Python) logging started Tue Sep 10 17:31:22 2019

Academic license - for non-commercial use only
Changed value of parameter MIPGap to 0.0
   Prev: 0.0001  Min: 0.0  Max: 1e+100  Default: 0.0001

Gurobi 8.1.1 (linux64, Python) logging started Tue Sep 10 17:32:25 2019

Academic license - for non-commercial use only
Changed value of parameter MIPGap to 0.0
   Prev: 0.0001  Min: 0.0  Max: 1e+100  Default: 0.0001

Gurobi 8.1.1 (linux64, Python) logging started Tue Sep 10 17:33:16 2019

Academic license - for non-commercial use only
Changed value of parameter MIPGap to 0.0
   Prev: 0.0001  Min: 0.0  Max: 1e+100  Default: 0.0001

Gurobi 8.1.1 (linux64, Python) logging started Tue Sep 10 17:33:42 2019

Academic license - for non-commercial use only
Changed value of parameter MIPGap to 0.0
   Prev: 0.0001  Min: 0.0  Max: 1e+100  Default: 0.0001

Gurobi 8.1.1 (linux64, Python) logging started Tue Sep 10 17:44:07 2019

Academic license - for non-commercial use only
Changed value of parameter MIPGap to 0.0
   Prev: 0.0001  Min: 0.0  Max: 1e+100  Default: 0.0001

Gurobi 8.1.1 (linux64, Python) logging started Tue Sep 10 17:47:59 2019

Academic license - for non-commercial use only
Changed value of parameter MIPGap to 0.0
   Prev: 0.0001  Min: 0.0  Max: 1e+100  Default: 0.0001

Gurobi 8.1.1 (linux64, Python) logging started Tue Sep 10 17:50:25 2019

Academic license - for non-commercial use only
Changed value of parameter MIPGap to 0.0
   Prev: 0.0001  Min: 0.0  Max: 1e+100  Default: 0.0001

Gurobi 8.1.1 (linux64, Python) logging started Tue Sep 10 17:57:38 2019

Academic license - for non-commercial use only
Changed value of parameter MIPGap to 0.0
   Prev: 0.0001  Min: 0.0  Max: 1e+100  Default: 0.0001

Gurobi 8.1.1 (linux64, Python) logging started Tue Sep 10 17:59:51 2019

Academic license - for non-commercial use only
Changed value of parameter MIPGap to 0.0
   Prev: 0.0001  Min: 0.0  Max: 1e+100  Default: 0.0001

Gurobi 8.1.1 (linux64, Python) logging started Sun Sep 15 03:41:06 2019

Academic license - for non-commercial use only
Changed value of parameter MIPGap to 0.0
   Prev: 0.0001  Min: 0.0  Max: 1e+100  Default: 0.0001

Gurobi 8.1.1 (linux64, Python) logging started Sun Sep 15 03:41:45 2019

Academic license - for non-commercial use only
Changed value of parameter MIPGap to 0.0
   Prev: 0.0001  Min: 0.0  Max: 1e+100  Default: 0.0001

Gurobi 8.1.1 (linux64, Python) logging started Sun Sep 15 03:41:53 2019

Academic license - for non-commercial use only
Changed value of parameter MIPGap to 0.0
   Prev: 0.0001  Min: 0.0  Max: 1e+100  Default: 0.0001

Gurobi 8.1.1 (linux64, Python) logging started Sun Sep 15 03:43:01 2019

Academic license - for non-commercial use only
Changed value of parameter MIPGap to 0.0
   Prev: 0.0001  Min: 0.0  Max: 1e+100  Default: 0.0001

Gurobi 8.1.1 (linux64, Python) logging started Sun Sep 15 03:46:01 2019

Academic license - for non-commercial use only
Changed value of parameter MIPGap to 0.0
   Prev: 0.0001  Min: 0.0  Max: 1e+100  Default: 0.0001

Gurobi 8.1.1 (linux64, Python) logging started Sun Sep 15 03:57:12 2019

Academic license - for non-commercial use only
Changed value of parameter MIPGap to 0.0
   Prev: 0.0001  Min: 0.0  Max: 1e+100  Default: 0.0001

Gurobi 8.1.1 (linux64, Python) logging started Sun Sep 15 04:51:27 2019

Academic license - for non-commercial use only
Changed value of parameter MIPGap to 0.0
   Prev: 0.0001  Min: 0.0  Max: 1e+100  Default: 0.0001

Gurobi 8.1.1 (linux64, Python) logging started Sun Sep 15 05:56:06 2019

Academic license - for non-commercial use only
Changed value of parameter MIPGap to 0.0
   Prev: 0.0001  Min: 0.0  Max: 1e+100  Default: 0.0001

Gurobi 8.1.1 (linux64, Python) logging started Sun Sep 15 05:56:50 2019

Academic license - for non-commercial use only
Changed value of parameter MIPGap to 0.0
   Prev: 0.0001  Min: 0.0  Max: 1e+100  Default: 0.0001

Gurobi 8.1.1 (linux64, Python) logging started Sun Sep 15 05:57:31 2019

Academic license - for non-commercial use only
Changed value of parameter MIPGap to 0.0
   Prev: 0.0001  Min: 0.0  Max: 1e+100  Default: 0.0001

Gurobi 8.1.0 (win64, Python) logging started 09/16/19 03:27:30

Academic license - for non-commercial use only
Changed value of parameter MIPGap to 0.0
   Prev: 0.0001  Min: 0.0  Max: 1e+100  Default: 0.0001

Gurobi 8.1.0 (win64, Python) logging started 09/16/19 15:57:04

Academic license - for non-commercial use only
Changed value of parameter MIPGap to 0.0
   Prev: 0.0001  Min: 0.0  Max: 1e+100  Default: 0.0001

Gurobi 8.1.0 (win64, Python) logging started 09/16/19 15:57:39

Academic license - for non-commercial use only
Changed value of parameter MIPGap to 0.0
   Prev: 0.0001  Min: 0.0  Max: 1e+100  Default: 0.0001

Gurobi 8.1.0 (win64, Python) logging started 09/16/19 15:58:01

Academic license - for non-commercial use only
Changed value of parameter MIPGap to 0.0
   Prev: 0.0001  Min: 0.0  Max: 1e+100  Default: 0.0001

Gurobi 8.1.1 (linux64, Python) logging started Mon Sep 16 16:01:28 2019

Academic license - for non-commercial use only
Changed value of parameter MIPGap to 0.0
   Prev: 0.0001  Min: 0.0  Max: 1e+100  Default: 0.0001

Gurobi 8.1.1 (linux64, Python) logging started Mon Sep 16 16:35:45 2019

Academic license - for non-commercial use only
Changed value of parameter MIPGap to 0.0
   Prev: 0.0001  Min: 0.0  Max: 1e+100  Default: 0.0001

Gurobi 8.1.1 (linux64, Python) logging started Mon Sep 16 16:58:17 2019

Academic license - for non-commercial use only
Changed value of parameter MIPGap to 0.0
   Prev: 0.0001  Min: 0.0  Max: 1e+100  Default: 0.0001

Gurobi 8.1.1 (linux64, Python) logging started Mon Sep 16 17:18:00 2019

Academic license - for non-commercial use only
Changed value of parameter MIPGap to 0.0
   Prev: 0.0001  Min: 0.0  Max: 1e+100  Default: 0.0001

Gurobi 8.1.1 (linux64, Python) logging started Mon Sep 16 17:21:02 2019

Academic license - for non-commercial use only
Changed value of parameter MIPGap to 0.0
   Prev: 0.0001  Min: 0.0  Max: 1e+100  Default: 0.0001

Gurobi 8.1.0 (win64, Python) logging started 09/16/19 17:33:43

Academic license - for non-commercial use only
Changed value of parameter MIPGap to 0.0
   Prev: 0.0001  Min: 0.0  Max: 1e+100  Default: 0.0001

Gurobi 8.1.0 (win64, Python) logging started 09/16/19 17:42:14

Academic license - for non-commercial use only
Changed value of parameter MIPGap to 0.0
   Prev: 0.0001  Min: 0.0  Max: 1e+100  Default: 0.0001
